QPLIB_2882
LGQ
minimize
144 # number of variables
273 # number of constraints
0.0 # default value for linear coefficients in objective
14 # number of non-default linear coefficients in objective
1 1.0
2 1.0
3 1.0
4 1.0
5 1.0
6 1.0
7 1.0
8 1.0
9 1.0
10 1.0
11 1.0
12 1.0
13 1.0
14 1.0
0.0 # objective constant
16 # number of quadratic terms in all constraints
258 1667986286 1 -2.0
259 1651076196 50 -2.0
260 1932407863 1 -2.0
261 1936531568 1651076122 -2.0
262 1852403556 540156012 -2.0
263 1768711012 50 -2.0
264 775173731 1 -2.0
265 1864396660 1 -2.0
266 824205172 1 -2.0
267 12321 50 -2.0
268 1 1 -2.0
269 1651076122 1 -2.0
270 1852403556 1 -2.0
271 1768711012 50 -2.0
272 775173731 1 -2.0
273 1864396660 1651076122 -2.0
1074 # number of linear terms in all constraints
1 15 1.0
1 16 -1.0
2 15 1.0
2 17 0.5
3 15 -1.0
3 17 0.5
4 18 0.5
4 19 1.0
5 18 0.5
5 19 -1.0
6 16 1.0
6 20 0.5
7 16 -1.0
7 20 0.5
8 21 0.5
8 22 1.0
9 21 0.5
9 22 -1.0
10 23 0.5
10 24 1.0
11 23 0.5
11 24 -1.0
12 25 0.5
12 26 1.0
13 25 0.5
13 26 -1.0
14 27 0.5
14 28 1.0
15 27 0.5
15 28 -1.0
16 29 0.5
16 30 1.0
17 29 0.5
17 30 -1.0
18 31 0.5
18 32 1.0
19 31 0.5
19 32 -1.0
20 33 0.5
20 34 1.0
21 33 0.5
21 34 -1.0
22 35 0.5
22 36 1.0
23 35 0.5
23 36 -1.0
24 37 0.5
24 38 1.0
25 37 0.5
25 38 -1.0
26 39 0.5
26 40 1.0
27 39 0.5
27 40 -1.0
28 41 0.5
28 42 1.0
29 41 0.5
29 42 -1.0
30 43 0.5
30 44 1.0
31 43 0.5
31 44 -1.0
32 45 0.5
32 46 1.0
33 45 0.5
33 46 -1.0
34 1 -1.0
34 15 1.0
34 16 -1.0
35 1 -1.0
35 15 -1.0
35 16 1.0
36 2 -1.0
36 19 1.0
36 22 -1.0
37 2 -1.0
37 19 -1.0
37 22 1.0
38 15 -1.0
38 16 1.0
38 17 0.5
38 20 0.5
38 47 -11.31
38 48 -11.31
39 15 1.0
39 16 -1.0
39 17 0.5
39 20 0.5
39 47 -11.31
39 48 11.31
40 18 0.5
40 19 -1.0
40 21 0.5
40 22 1.0
40 47 13.0
40 48 -13.0
41 18 0.5
41 19 1.0
41 21 0.5
41 22 -1.0
41 47 13.0
41 48 13.0
42 15 1.0
42 24 -1.0
42 49 -1.0
43 15 -1.0
43 24 1.0
43 49 -1.0
44 19 1.0
44 26 -1.0
44 50 -1.0
45 19 -1.0
45 26 1.0
45 50 -1.0
46 15 -1.0
46 17 0.5
46 23 0.5
46 24 1.0
46 51 -11.31
46 52 -11.31
47 15 1.0
47 17 0.5
47 23 0.5
47 24 -1.0
47 51 -11.31
47 52 11.31
48 18 0.5
48 19 -1.0
48 25 0.5
48 26 1.0
48 51 13.0
48 52 -13.0
49 18 0.5
49 19 1.0
49 25 0.5
49 26 -1.0
49 51 13.0
49 52 13.0
50 15 1.0
50 28 -1.0
50 53 -1.0
51 15 -1.0
51 28 1.0
51 53 -1.0
52 19 1.0
52 30 -1.0
52 54 -1.0
53 19 -1.0
53 30 1.0
53 54 -1.0
54 15 -1.0
54 17 0.5
54 27 0.5
54 28 1.0
54 55 -11.31
54 56 -11.31
55 15 1.0
55 17 0.5
55 27 0.5
55 28 -1.0
55 55 -11.31
55 56 11.31
56 18 0.5
56 19 -1.0
56 29 0.5
56 30 1.0
56 55 13.0
56 56 -13.0
57 18 0.5
57 19 1.0
57 29 0.5
57 30 -1.0
57 55 13.0
57 56 13.0
58 15 1.0
58 32 -1.0
58 57 -1.0
59 15 -1.0
59 32 1.0
59 57 -1.0
60 19 1.0
60 34 -1.0
60 58 -1.0
61 19 -1.0
61 34 1.0
61 58 -1.0
62 15 -1.0
62 17 0.5
62 31 0.5
62 32 1.0
62 59 -11.31
62 60 -11.31
63 15 1.0
63 17 0.5
63 31 0.5
63 32 -1.0
63 59 -11.31
63 60 11.31
64 18 0.5
64 19 -1.0
64 33 0.5
64 34 1.0
64 59 13.0
64 60 -13.0
65 18 0.5
65 19 1.0
65 33 0.5
65 34 -1.0
65 59 13.0
65 60 13.0
66 15 1.0
66 36 -1.0
66 61 -1.0
67 15 -1.0
67 36 1.0
67 61 -1.0
68 19 1.0
68 38 -1.0
68 62 -1.0
69 19 -1.0
69 38 1.0
69 62 -1.0
70 15 -1.0
70 17 0.5
70 35 0.5
70 36 1.0
70 63 -11.31
70 64 -11.31
71 15 1.0
71 17 0.5
71 35 0.5
71 36 -1.0
71 63 -11.31
71 64 11.31
72 18 0.5
72 19 -1.0
72 37 0.5
72 38 1.0
72 63 13.0
72 64 -13.0
73 18 0.5
73 19 1.0
73 37 0.5
73 38 -1.0
73 63 13.0
73 64 13.0
74 15 1.0
74 40 -1.0
74 65 -1.0
75 15 -1.0
75 40 1.0
75 65 -1.0
76 19 1.0
76 42 -1.0
76 66 -1.0
77 19 -1.0
77 42 1.0
77 66 -1.0
78 15 -1.0
78 17 0.5
78 39 0.5
78 40 1.0
78 67 -11.31
78 68 -11.31
79 15 1.0
79 17 0.5
79 39 0.5
79 40 -1.0
79 67 -11.31
79 68 11.31
80 18 0.5
80 19 -1.0
80 41 0.5
80 42 1.0
80 67 13.0
80 68 -13.0
81 18 0.5
81 19 1.0
81 41 0.5
81 42 -1.0
81 67 13.0
81 68 13.0
82 15 1.0
82 44 -1.0
82 69 -1.0
83 15 -1.0
83 44 1.0
83 69 -1.0
84 19 1.0
84 46 -1.0
84 70 -1.0
85 19 -1.0
85 46 1.0
85 70 -1.0
86 15 -1.0
86 17 0.5
86 43 0.5
86 44 1.0
86 71 -11.31
86 72 -11.31
87 15 1.0
87 17 0.5
87 43 0.5
87 44 -1.0
87 71 -11.31
87 72 11.31
88 18 0.5
88 19 -1.0
88 45 0.5
88 46 1.0
88 71 13.0
88 72 -13.0
89 18 0.5
89 19 1.0
89 45 0.5
89 46 -1.0
89 71 13.0
89 72 13.0
90 3 -1.0
90 16 1.0
90 24 -1.0
91 3 -1.0
91 16 -1.0
91 24 1.0
92 4 -1.0
92 22 1.0
92 26 -1.0
93 4 -1.0
93 22 -1.0
93 26 1.0
94 16 -1.0
94 20 0.5
94 23 0.5
94 24 1.0
94 73 -11.31
94 74 -11.31
95 16 1.0
95 20 0.5
95 23 0.5
95 24 -1.0
95 73 -11.31
95 74 11.31
96 21 0.5
96 22 -1.0
96 25 0.5
96 26 1.0
96 73 13.0
96 74 -13.0
97 21 0.5
97 22 1.0
97 25 0.5
97 26 -1.0
97 73 13.0
97 74 13.0
98 16 1.0
98 28 -1.0
98 75 -1.0
99 16 -1.0
99 28 1.0
99 75 -1.0
100 22 1.0
100 30 -1.0
100 76 -1.0
101 22 -1.0
101 30 1.0
101 76 -1.0
102 16 -1.0
102 20 0.5
102 27 0.5
102 28 1.0
102 77 -11.31
102 78 -11.31
103 16 1.0
103 20 0.5
103 27 0.5
103 28 -1.0
103 77 -11.31
103 78 11.31
104 21 0.5
104 22 -1.0
104 29 0.5
104 30 1.0
104 77 13.0
104 78 -13.0
105 21 0.5
105 22 1.0
105 29 0.5
105 30 -1.0
105 77 13.0
105 78 13.0
106 16 1.0
106 32 -1.0
106 79 -1.0
107 16 -1.0
107 32 1.0
107 79 -1.0
108 22 1.0
108 34 -1.0
108 80 -1.0
109 22 -1.0
109 34 1.0
109 80 -1.0
110 16 -1.0
110 20 0.5
110 31 0.5
110 32 1.0
110 81 -11.31
110 82 -11.31
111 16 1.0
111 20 0.5
111 31 0.5
111 32 -1.0
111 81 -11.31
111 82 11.31
112 21 0.5
112 22 -1.0
112 33 0.5
112 34 1.0
112 81 13.0
112 82 -13.0
113 21 0.5
113 22 1.0
113 33 0.5
113 34 -1.0
113 81 13.0
113 82 13.0
114 16 1.0
114 36 -1.0
114 83 -1.0
115 16 -1.0
115 36 1.0
115 83 -1.0
116 22 1.0
116 38 -1.0
116 84 -1.0
117 22 -1.0
117 38 1.0
117 84 -1.0
118 16 -1.0
118 20 0.5
118 35 0.5
118 36 1.0
118 85 -11.31
118 86 -11.31
119 16 1.0
119 20 0.5
119 35 0.5
119 36 -1.0
119 85 -11.31
119 86 11.31
120 21 0.5
120 22 -1.0
120 37 0.5
120 38 1.0
120 85 13.0
120 86 -13.0
121 21 0.5
121 22 1.0
121 37 0.5
121 38 -1.0
121 85 13.0
121 86 13.0
122 16 1.0
122 40 -1.0
122 87 -1.0
123 16 -1.0
123 40 1.0
123 87 -1.0
124 22 1.0
124 42 -1.0
124 88 -1.0
125 22 -1.0
125 42 1.0
125 88 -1.0
126 16 -1.0
126 20 0.5
126 39 0.5
126 40 1.0
126 89 -11.31
126 90 -11.31
127 16 1.0
127 20 0.5
127 39 0.5
127 40 -1.0
127 89 -11.31
127 90 11.31
128 21 0.5
128 22 -1.0
128 41 0.5
128 42 1.0
128 89 13.0
128 90 -13.0
129 21 0.5
129 22 1.0
129 41 0.5
129 42 -1.0
129 89 13.0
129 90 13.0
130 16 1.0
130 44 -1.0
130 91 -1.0
131 16 -1.0
131 44 1.0
131 91 -1.0
132 22 1.0
132 46 -1.0
132 92 -1.0
133 22 -1.0
133 46 1.0
133 92 -1.0
134 16 -1.0
134 20 0.5
134 43 0.5
134 44 1.0
134 93 -11.31
134 94 -11.31
135 16 1.0
135 20 0.5
135 43 0.5
135 44 -1.0
135 93 -11.31
135 94 11.31
136 21 0.5
136 22 -1.0
136 45 0.5
136 46 1.0
136 93 13.0
136 94 -13.0
137 21 0.5
137 22 1.0
137 45 0.5
137 46 -1.0
137 93 13.0
137 94 13.0
138 5 -1.0
138 24 1.0
138 28 -1.0
139 5 -1.0
139 24 -1.0
139 28 1.0
140 6 -1.0
140 26 1.0
140 30 -1.0
141 6 -1.0
141 26 -1.0
141 30 1.0
142 23 0.5
142 24 -1.0
142 27 0.5
142 28 1.0
142 95 -11.31
142 96 -11.31
143 23 0.5
143 24 1.0
143 27 0.5
143 28 -1.0
143 95 -11.31
143 96 11.31
144 25 0.5
144 26 -1.0
144 29 0.5
144 30 1.0
144 95 13.0
144 96 -13.0
145 25 0.5
145 26 1.0
145 29 0.5
145 30 -1.0
145 95 13.0
145 96 13.0
146 24 1.0
146 32 -1.0
146 97 -1.0
147 24 -1.0
147 32 1.0
147 97 -1.0
148 26 1.0
148 34 -1.0
148 98 -1.0
149 26 -1.0
149 34 1.0
149 98 -1.0
150 23 0.5
150 24 -1.0
150 31 0.5
150 32 1.0
150 99 -11.31
150 100 -11.31
151 23 0.5
151 24 1.0
151 31 0.5
151 32 -1.0
151 99 -11.31
151 100 11.31
152 25 0.5
152 26 -1.0
152 33 0.5
152 34 1.0
152 99 13.0
152 100 -13.0
153 25 0.5
153 26 1.0
153 33 0.5
153 34 -1.0
153 99 13.0
153 100 13.0
154 24 1.0
154 36 -1.0
154 101 -1.0
155 24 -1.0
155 36 1.0
155 101 -1.0
156 26 1.0
156 38 -1.0
156 102 -1.0
157 26 -1.0
157 38 1.0
157 102 -1.0
158 23 0.5
158 24 -1.0
158 35 0.5
158 36 1.0
158 103 -11.31
158 104 -11.31
159 23 0.5
159 24 1.0
159 35 0.5
159 36 -1.0
159 103 -11.31
159 104 11.31
160 25 0.5
160 26 -1.0
160 37 0.5
160 38 1.0
160 103 13.0
160 104 -13.0
161 25 0.5
161 26 1.0
161 37 0.5
161 38 -1.0
161 103 13.0
161 104 13.0
162 24 1.0
162 40 -1.0
162 105 -1.0
163 24 -1.0
163 40 1.0
163 105 -1.0
164 26 1.0
164 42 -1.0
164 106 -1.0
165 26 -1.0
165 42 1.0
165 106 -1.0
166 23 0.5
166 24 -1.0
166 39 0.5
166 40 1.0
166 107 -11.31
166 108 -11.31
167 23 0.5
167 24 1.0
167 39 0.5
167 40 -1.0
167 107 -11.31
167 108 11.31
168 25 0.5
168 26 -1.0
168 41 0.5
168 42 1.0
168 107 13.0
168 108 -13.0
169 25 0.5
169 26 1.0
169 41 0.5
169 42 -1.0
169 107 13.0
169 108 13.0
170 24 1.0
170 44 -1.0
170 109 -1.0
171 24 -1.0
171 44 1.0
171 109 -1.0
172 26 1.0
172 46 -1.0
172 110 -1.0
173 26 -1.0
173 46 1.0
173 110 -1.0
174 23 0.5
174 24 -1.0
174 43 0.5
174 44 1.0
174 111 -11.31
174 112 -11.31
175 23 0.5
175 24 1.0
175 43 0.5
175 44 -1.0
175 111 -11.31
175 112 11.31
176 25 0.5
176 26 -1.0
176 45 0.5
176 46 1.0
176 111 13.0
176 112 -13.0
177 25 0.5
177 26 1.0
177 45 0.5
177 46 -1.0
177 111 13.0
177 112 13.0
178 7 -1.0
178 28 1.0
178 32 -1.0
179 7 -1.0
179 28 -1.0
179 32 1.0
180 8 -1.0
180 30 1.0
180 34 -1.0
181 8 -1.0
181 30 -1.0
181 34 1.0
182 27 0.5
182 28 -1.0
182 31 0.5
182 32 1.0
182 113 -11.31
182 114 -11.31
183 27 0.5
183 28 1.0
183 31 0.5
183 32 -1.0
183 113 -11.31
183 114 11.31
184 29 0.5
184 30 -1.0
184 33 0.5
184 34 1.0
184 113 13.0
184 114 -13.0
185 29 0.5
185 30 1.0
185 33 0.5
185 34 -1.0
185 113 13.0
185 114 13.0
186 28 1.0
186 36 -1.0
186 115 -1.0
187 28 -1.0
187 36 1.0
187 115 -1.0
188 30 1.0
188 38 -1.0
188 116 -1.0
189 30 -1.0
189 38 1.0
189 116 -1.0
190 27 0.5
190 28 -1.0
190 35 0.5
190 36 1.0
190 117 -11.31
190 118 -11.31
191 27 0.5
191 28 1.0
191 35 0.5
191 36 -1.0
191 117 -11.31
191 118 11.31
192 29 0.5
192 30 -1.0
192 37 0.5
192 38 1.0
192 117 13.0
192 118 -13.0
193 29 0.5
193 30 1.0
193 37 0.5
193 38 -1.0
193 117 13.0
193 118 13.0
194 28 1.0
194 40 -1.0
194 119 -1.0
195 28 -1.0
195 40 1.0
195 119 -1.0
196 30 1.0
196 42 -1.0
196 120 -1.0
197 30 -1.0
197 42 1.0
197 120 -1.0
198 27 0.5
198 28 -1.0
198 39 0.5
198 40 1.0
198 121 -11.31
198 122 -11.31
199 27 0.5
199 28 1.0
199 39 0.5
199 40 -1.0
199 121 -11.31
199 122 11.31
200 29 0.5
200 30 -1.0
200 41 0.5
200 42 1.0
200 121 13.0
200 122 -13.0
201 29 0.5
201 30 1.0
201 41 0.5
201 42 -1.0
201 121 13.0
201 122 13.0
202 28 1.0
202 44 -1.0
202 123 -1.0
203 28 -1.0
203 44 1.0
203 123 -1.0
204 30 1.0
204 46 -1.0
204 124 -1.0
205 30 -1.0
205 46 1.0
205 124 -1.0
206 27 0.5
206 28 -1.0
206 43 0.5
206 44 1.0
206 125 -11.31
206 126 -11.31
207 27 0.5
207 28 1.0
207 43 0.5
207 44 -1.0
207 125 -11.31
207 126 11.31
208 29 0.5
208 30 -1.0
208 45 0.5
208 46 1.0
208 125 13.0
208 126 -13.0
209 29 0.5
209 30 1.0
209 45 0.5
209 46 -1.0
209 125 13.0
209 126 13.0
210 9 -1.0
210 32 1.0
210 36 -1.0
211 9 -1.0
211 32 -1.0
211 36 1.0
212 10 -1.0
212 34 1.0
212 38 -1.0
213 10 -1.0
213 34 -1.0
213 38 1.0
214 31 0.5
214 32 -1.0
214 35 0.5
214 36 1.0
214 127 -11.31
214 128 -11.31
215 31 0.5
215 32 1.0
215 35 0.5
215 36 -1.0
215 127 -11.31
215 128 11.31
216 33 0.5
216 34 -1.0
216 37 0.5
216 38 1.0
216 127 13.0
216 128 -13.0
217 33 0.5
217 34 1.0
217 37 0.5
217 38 -1.0
217 127 13.0
217 128 13.0
218 32 1.0
218 40 -1.0
218 129 -1.0
219 32 -1.0
219 40 1.0
219 129 -1.0
220 34 1.0
220 42 -1.0
220 130 -1.0
221 34 -1.0
221 42 1.0
221 130 -1.0
222 31 0.5
222 32 -1.0
222 39 0.5
222 40 1.0
222 131 -11.31
222 132 -11.31
223 31 0.5
223 32 1.0
223 39 0.5
223 40 -1.0
223 131 -11.31
223 132 11.31
224 33 0.5
224 34 -1.0
224 41 0.5
224 42 1.0
224 131 13.0
224 132 -13.0
225 33 0.5
225 34 1.0
225 41 0.5
225 42 -1.0
225 131 13.0
225 132 13.0
226 32 1.0
226 44 -1.0
226 133 -1.0
227 32 -1.0
227 44 1.0
227 133 -1.0
228 34 1.0
228 46 -1.0
228 134 -1.0
229 34 -1.0
229 46 1.0
229 134 -1.0
230 31 0.5
230 32 -1.0
230 43 0.5
230 44 1.0
230 135 -11.31
230 136 -11.31
231 31 0.5
231 32 1.0
231 43 0.5
231 44 -1.0
231 135 -11.31
231 136 11.31
232 33 0.5
232 34 -1.0
232 45 0.5
232 46 1.0
232 135 13.0
232 136 -13.0
233 33 0.5
233 34 1.0
233 45 0.5
233 46 -1.0
233 135 13.0
233 136 13.0
234 11 -1.0
234 36 1.0
234 40 -1.0
235 11 -1.0
235 36 -1.0
235 40 1.0
236 12 -1.0
236 38 1.0
236 42 -1.0
237 12 -1.0
237 38 -1.0
237 42 1.0
238 35 0.5
238 36 -1.0
238 39 0.5
238 40 1.0
238 137 -11.31
238 138 -11.31
239 35 0.5
239 36 1.0
239 39 0.5
239 40 -1.0
239 137 -11.31
239 138 11.31
240 37 0.5
240 38 -1.0
240 41 0.5
240 42 1.0
240 137 13.0
240 138 -13.0
241 37 0.5
241 38 1.0
241 41 0.5
241 42 -1.0
241 137 13.0
241 138 13.0
242 36 1.0
242 44 -1.0
242 139 -1.0
243 36 -1.0
243 44 1.0
243 139 -1.0
244 38 1.0
244 46 -1.0
244 140 -1.0
245 38 -1.0
245 46 1.0
245 140 -1.0
246 35 0.5
246 36 -1.0
246 43 0.5
246 44 1.0
246 141 -11.31
246 142 -11.31
247 35 0.5
247 36 1.0
247 43 0.5
247 44 -1.0
247 141 -11.31
247 142 11.31
248 37 0.5
248 38 -1.0
248 45 0.5
248 46 1.0
248 141 13.0
248 142 -13.0
249 37 0.5
249 38 1.0
249 45 0.5
249 46 -1.0
249 141 13.0
249 142 13.0
250 13 -1.0
250 40 1.0
250 44 -1.0
251 13 -1.0
251 40 -1.0
251 44 1.0
252 14 -1.0
252 42 1.0
252 46 -1.0
253 14 -1.0
253 42 -1.0
253 46 1.0
254 39 0.5
254 40 -1.0
254 43 0.5
254 44 1.0
254 143 -11.31
254 144 -11.31
255 39 0.5
255 40 1.0
255 43 0.5
255 44 -1.0
255 143 -11.31
255 144 11.31
256 41 0.5
256 42 -1.0
256 45 0.5
256 46 1.0
256 143 13.0
256 144 -13.0
257 41 0.5
257 42 1.0
257 45 0.5
257 46 -1.0
257 143 13.0
257 144 13.0
1.79769313486232E+308 # value for infinity
-1.79769313486232E+308 # default left-hand-side value
0 # number of non-default left-hand-sides
-9.0 # default right-hand-side value
267 # number of non-default right-hand-sides
1 0.0
2 11.31
3 0.0
4 13.0
5 0.0
6 11.31
7 0.0
8 13.0
9 0.0
10 11.31
11 0.0
12 13.0
13 0.0
14 11.31
15 0.0
16 13.0
17 0.0
18 11.31
19 0.0
20 13.0
21 0.0
22 11.31
23 0.0
24 13.0
25 0.0
26 11.31
27 0.0
28 13.0
29 0.0
30 11.31
31 0.0
32 13.0
33 0.0
34 0.0
35 0.0
36 0.0
37 0.0
38 0.0
39 11.31
40 13.0
41 26.0
42 0.0
43 0.0
44 0.0
45 0.0
46 0.0
47 11.31
48 13.0
49 26.0
50 0.0
51 0.0
52 0.0
53 0.0
54 0.0
55 11.31
56 13.0
57 26.0
58 0.0
59 0.0
60 0.0
61 0.0
62 0.0
63 11.31
64 13.0
65 26.0
66 0.0
67 0.0
68 0.0
69 0.0
70 0.0
71 11.31
72 13.0
73 26.0
74 0.0
75 0.0
76 0.0
77 0.0
78 0.0
79 11.31
80 13.0
81 26.0
82 0.0
83 0.0
84 0.0
85 0.0
86 0.0
87 11.31
88 13.0
89 26.0
90 0.0
91 0.0
92 0.0
93 0.0
94 0.0
95 11.31
96 13.0
97 26.0
98 0.0
99 0.0
100 0.0
101 0.0
102 0.0
103 11.31
104 13.0
105 26.0
106 0.0
107 0.0
108 0.0
109 0.0
110 0.0
111 11.31
112 13.0
113 26.0
114 0.0
115 0.0
116 0.0
117 0.0
118 0.0
119 11.31
120 13.0
121 26.0
122 0.0
123 0.0
124 0.0
125 0.0
126 0.0
127 11.31
128 13.0
129 26.0
130 0.0
131 0.0
132 0.0
133 0.0
134 0.0
135 11.31
136 13.0
137 26.0
138 0.0
139 0.0
140 0.0
141 0.0
142 0.0
143 11.31
144 13.0
145 26.0
146 0.0
147 0.0
148 0.0
149 0.0
150 0.0
151 11.31
152 13.0
153 26.0
154 0.0
155 0.0
156 0.0
157 0.0
158 0.0
159 11.31
160 13.0
161 26.0
162 0.0
163 0.0
164 0.0
165 0.0
166 0.0
167 11.31
168 13.0
169 26.0
170 0.0
171 0.0
172 0.0
173 0.0
174 0.0
175 11.31
176 13.0
177 26.0
178 0.0
179 0.0
180 0.0
181 0.0
182 0.0
183 11.31
184 13.0
185 26.0
186 0.0
187 0.0
188 0.0
189 0.0
190 0.0
191 11.31
192 13.0
193 26.0
194 0.0
195 0.0
196 0.0
197 0.0
198 0.0
199 11.31
200 13.0
201 26.0
202 0.0
203 0.0
204 0.0
205 0.0
206 0.0
207 11.31
208 13.0
209 26.0
210 0.0
211 0.0
212 0.0
213 0.0
214 0.0
215 11.31
216 13.0
217 26.0
218 0.0
219 0.0
220 0.0
221 0.0
222 0.0
223 11.31
224 13.0
225 26.0
226 0.0
227 0.0
228 0.0
229 0.0
230 0.0
231 11.31
232 13.0
233 26.0
234 0.0
235 0.0
236 0.0
237 0.0
238 0.0
239 11.31
240 13.0
241 26.0
242 0.0
243 0.0
244 0.0
245 0.0
246 0.0
247 11.31
248 13.0
249 26.0
250 0.0
251 0.0
252 0.0
253 0.0
254 0.0
255 11.31
256 13.0
257 26.0
258 -16.0
259 -16.0
260 -16.0
261 -16.0
262 -16.0
263 -16.0
264 -36.0
265 -36.0
266 -36.0
267 -36.0
-1.79769313486232E+308 # default variable lower bound value
72 # number of non-default variable lower bounds
17 2.0
18 2.0
20 2.0
21 2.0
23 2.0
25 2.0
27 3.0
29 3.183
31 3.0
33 3.183
35 1.5
37 1.5
39 1.5
41 1.5
43 1.5
45 1.5
47 0.0
48 0.0
51 0.0
52 0.0
55 0.0
56 0.0
59 0.0
60 0.0
63 0.0
64 0.0
67 0.0
68 0.0
71 0.0
72 0.0
73 0.0
74 0.0
77 0.0
78 0.0
81 0.0
82 0.0
85 0.0
86 0.0
89 0.0
90 0.0
93 0.0
94 0.0
95 0.0
96 0.0
99 0.0
100 0.0
103 0.0
104 0.0
107 0.0
108 0.0
111 0.0
112 0.0
113 0.0
114 0.0
117 0.0
118 0.0
121 0.0
122 0.0
125 0.0
126 0.0
127 0.0
128 0.0
131 0.0
132 0.0
135 0.0
136 0.0
137 0.0
138 0.0
141 0.0
142 0.0
143 0.0
144 0.0
1.79769313486232E+308 # default variable upper bound value
72 # number of non-default variable upper bounds
17 8.0
18 8.0
20 8.0
21 8.0
23 8.0
25 8.0
27 11.31
29 12.0
31 11.31
33 12.0
35 6.0
37 6.0
39 6.0
41 6.0
43 6.0
45 6.0
47 1.0
48 1.0
51 1.0
52 1.0
55 1.0
56 1.0
59 1.0
60 1.0
63 1.0
64 1.0
67 1.0
68 1.0
71 1.0
72 1.0
73 1.0
74 1.0
77 1.0
78 1.0
81 1.0
82 1.0
85 1.0
86 1.0
89 1.0
90 1.0
93 1.0
94 1.0
95 1.0
96 1.0
99 1.0
100 1.0
103 1.0
104 1.0
107 1.0
108 1.0
111 1.0
112 1.0
113 1.0
114 1.0
117 1.0
118 1.0
121 1.0
122 1.0
125 1.0
126 1.0
127 1.0
128 1.0
131 1.0
132 1.0
135 1.0
136 1.0
137 1.0
138 1.0
141 1.0
142 1.0
143 1.0
144 1.0
0 # default variable type
56 # number of non-default variable types
47 1
48 1
51 1
52 1
55 1
56 1
59 1
60 1
63 1
64 1
67 1
68 1
71 1
72 1
73 1
74 1
77 1
78 1
81 1
82 1
85 1
86 1
89 1
90 1
93 1
94 1
95 1
96 1
99 1
100 1
103 1
104 1
107 1
108 1
111 1
112 1
113 1
114 1
117 1
118 1
121 1
122 1
125 1
126 1
127 1
128 1
131 1
132 1
135 1
136 1
137 1
138 1
141 1
142 1
143 1
144 1
0.0 # default variable primal value in starting point
16 # number of non-default variable primal values in starting point
17 2.0
18 2.0
20 2.0
21 2.0
23 2.0
25 2.0
27 3.0
29 3.183
31 3.0
33 3.183
35 1.5
37 1.5
39 1.5
41 1.5
43 1.5
45 1.5
0.0 # default constraint dual value in starting point
0 # number of non-default constraint dual values in starting point
0.0 # default variable bound dual value in starting point
0 # number of non-default variable bound dual values in starting point
0 # number of non-default variable names
0 # number of non-default constraint names
